
Gurobi 11.0.3 (win64, Java) logging started Sat Nov  2 23:15:15 2024

Set parameter Username
Set parameter LogFile to value "IPModelOptimizer.log"
Academic license - for non-commercial use only - expires 2025-10-31

Gurobi 11.0.3 (win64, Java) logging started Sat Nov  2 23:16:42 2024

Set parameter Username
Set parameter LogFile to value "IPModelOptimizer.log"
Academic license - for non-commercial use only - expires 2025-10-31

Gurobi 11.0.3 (win64, Java) logging started Sat Nov  2 23:17:00 2024

Set parameter Username
Set parameter LogFile to value "IPModelOptimizer.log"
Academic license - for non-commercial use only - expires 2025-10-31

Gurobi 11.0.3 (win64, Java) logging started Sat Nov  2 23:17:10 2024

Set parameter Username
Set parameter LogFile to value "IPModelOptimizer.log"
Academic license - for non-commercial use only - expires 2025-10-31

Gurobi 11.0.3 (win64, Java) logging started Sat Nov  2 23:20:26 2024

Set parameter Username
Set parameter LogFile to value "IPModelOptimizer.log"
Academic license - for non-commercial use only - expires 2025-10-31

Gurobi 11.0.3 (win64, Java) logging started Sat Nov  2 23:21:24 2024

Set parameter Username
Set parameter LogFile to value "IPModelOptimizer.log"
Academic license - for non-commercial use only - expires 2025-10-31

Gurobi 11.0.3 (win64, Java) logging started Sat Nov  2 23:23:52 2024

Set parameter Username
Set parameter LogFile to value "IPModelOptimizer.log"
Academic license - for non-commercial use only - expires 2025-10-31

Gurobi 11.0.3 (win64, Java) logging started Sat Nov  2 23:24:49 2024

Set parameter Username
Set parameter LogFile to value "IPModelOptimizer.log"
Academic license - for non-commercial use only - expires 2025-10-31

Gurobi 11.0.3 (win64, Java) logging started Sat Nov  2 23:30:57 2024

Set parameter Username
Set parameter LogFile to value "IPModelOptimizer.log"
Academic license - for non-commercial use only - expires 2025-10-31

Gurobi 11.0.3 (win64, Java) logging started Sat Nov  2 23:39:05 2024

Set parameter Username
Set parameter LogFile to value "IPModelOptimizer.log"
Academic license - for non-commercial use only - expires 2025-10-31
Gurobi Optimizer version 11.0.3 build v11.0.3rc0 (win64 - Windows 11+.0 (26100.2))

CPU model: 13th Gen Intel(R) Core(TM) i7-13700H, instruction set [SSE2|AVX|AVX2]
Thread count: 14 physical cores, 20 logical processors, using up to 20 threads

Optimize a model with 197426 rows, 130032 columns and 636108 nonzeros
Model fingerprint: 0xbb64538b
Variable types: 0 continuous, 130032 integer (130032 binary)
Coefficient statistics:
  Matrix range     [1e+00, 1e+00]
  Objective range  [1e+00, 1e+02]
  Bounds range     [1e+00, 1e+00]
  RHS range        [1e+00, 1e+00]
Found heuristic solution: objective 1348.0000000
Presolve removed 187910 rows and 123845 columns
Presolve time: 0.19s
Presolved: 9516 rows, 6187 columns, 31527 nonzeros
Variable types: 0 continuous, 6187 integer (6187 binary)
Found heuristic solution: objective 811.0000000

Explored 1 nodes (0 simplex iterations) in 0.52 seconds (0.31 work units)
Thread count was 20 (of 20 available processors)

Solution count 2: 811 1348 

Optimal solution found (tolerance 1.00e-04)
Best objective 8.110000000000e+02, best bound 8.110000000000e+02, gap 0.0000%

Gurobi 11.0.3 (win64, Java) logging started Sat Nov  2 23:43:07 2024

Set parameter Username
Set parameter LogFile to value "IPModelOptimizer.log"
Academic license - for non-commercial use only - expires 2025-10-31
Gurobi Optimizer version 11.0.3 build v11.0.3rc0 (win64 - Windows 11+.0 (26100.2))

CPU model: 13th Gen Intel(R) Core(TM) i7-13700H, instruction set [SSE2|AVX|AVX2]
Thread count: 14 physical cores, 20 logical processors, using up to 20 threads

Optimize a model with 197426 rows, 130032 columns and 636108 nonzeros
Model fingerprint: 0xbb64538b
Variable types: 0 continuous, 130032 integer (130032 binary)
Coefficient statistics:
  Matrix range     [1e+00, 1e+00]
  Objective range  [1e+00, 1e+02]
  Bounds range     [1e+00, 1e+00]
  RHS range        [1e+00, 1e+00]
Found heuristic solution: objective 1348.0000000
Presolve removed 187910 rows and 123845 columns
Presolve time: 0.15s
Presolved: 9516 rows, 6187 columns, 31527 nonzeros
Variable types: 0 continuous, 6187 integer (6187 binary)
Found heuristic solution: objective 811.0000000

Explored 1 nodes (0 simplex iterations) in 0.44 seconds (0.31 work units)
Thread count was 20 (of 20 available processors)

Solution count 2: 811 1348 

Optimal solution found (tolerance 1.00e-04)
Best objective 8.110000000000e+02, best bound 8.110000000000e+02, gap 0.0000%

Gurobi 11.0.3 (win64, Java) logging started Thu Nov  7 12:19:49 2024

Set parameter Username
Set parameter LogFile to value "IPModelOptimizer.log"
Academic license - for non-commercial use only - expires 2025-10-31
Gurobi Optimizer version 11.0.3 build v11.0.3rc0 (win64 - Windows 11+.0 (26100.2))

CPU model: 13th Gen Intel(R) Core(TM) i7-13700H, instruction set [SSE2|AVX|AVX2]
Thread count: 14 physical cores, 20 logical processors, using up to 20 threads

Optimize a model with 197426 rows, 130032 columns and 636108 nonzeros
Model fingerprint: 0xbb64538b
Variable types: 0 continuous, 130032 integer (130032 binary)
Coefficient statistics:
  Matrix range     [1e+00, 1e+00]
  Objective range  [1e+00, 1e+02]
  Bounds range     [1e+00, 1e+00]
  RHS range        [1e+00, 1e+00]
Found heuristic solution: objective 1348.0000000
Presolve removed 187910 rows and 123845 columns
Presolve time: 0.20s
Presolved: 9516 rows, 6187 columns, 31527 nonzeros
Variable types: 0 continuous, 6187 integer (6187 binary)
Found heuristic solution: objective 811.0000000

Explored 1 nodes (0 simplex iterations) in 0.65 seconds (0.31 work units)
Thread count was 20 (of 20 available processors)

Solution count 2: 811 1348 

Optimal solution found (tolerance 1.00e-04)
Best objective 8.110000000000e+02, best bound 8.110000000000e+02, gap 0.0000%

Gurobi 11.0.3 (win64, Java) logging started Sat Nov  9 17:06:59 2024

Set parameter Username
Set parameter LogFile to value "IPModelOptimizer.log"
Academic license - for non-commercial use only - expires 2025-10-31
Gurobi Optimizer version 11.0.3 build v11.0.3rc0 (win64 - Windows 11+.0 (26100.2))

CPU model: 13th Gen Intel(R) Core(TM) i7-13700H, instruction set [SSE2|AVX|AVX2]
Thread count: 14 physical cores, 20 logical processors, using up to 20 threads

Optimize a model with 197426 rows, 130032 columns and 636108 nonzeros
Model fingerprint: 0xbb64538b
Variable types: 0 continuous, 130032 integer (130032 binary)
Coefficient statistics:
  Matrix range     [1e+00, 1e+00]
  Objective range  [1e+00, 1e+02]
  Bounds range     [1e+00, 1e+00]
  RHS range        [1e+00, 1e+00]
Found heuristic solution: objective 1348.0000000
Presolve removed 187910 rows and 123845 columns
Presolve time: 0.08s
Presolved: 9516 rows, 6187 columns, 31527 nonzeros
Variable types: 0 continuous, 6187 integer (6187 binary)
Found heuristic solution: objective 811.0000000

Explored 1 nodes (0 simplex iterations) in 0.25 seconds (0.31 work units)
Thread count was 20 (of 20 available processors)

Solution count 2: 811 1348 

Optimal solution found (tolerance 1.00e-04)
Best objective 8.110000000000e+02, best bound 8.110000000000e+02, gap 0.0000%

Gurobi 11.0.3 (win64, Java) logging started Sat Nov  9 17:15:18 2024

Set parameter Username
Set parameter LogFile to value "IPModelOptimizer.log"
Academic license - for non-commercial use only - expires 2025-10-31
Gurobi Optimizer version 11.0.3 build v11.0.3rc0 (win64 - Windows 11+.0 (26100.2))

CPU model: 13th Gen Intel(R) Core(TM) i7-13700H, instruction set [SSE2|AVX|AVX2]
Thread count: 14 physical cores, 20 logical processors, using up to 20 threads

Optimize a model with 197426 rows, 130032 columns and 636108 nonzeros
Model fingerprint: 0xbb64538b
Variable types: 0 continuous, 130032 integer (130032 binary)
Coefficient statistics:
  Matrix range     [1e+00, 1e+00]
  Objective range  [1e+00, 1e+02]
  Bounds range     [1e+00, 1e+00]
  RHS range        [1e+00, 1e+00]
Found heuristic solution: objective 1348.0000000
Presolve removed 187910 rows and 123845 columns
Presolve time: 0.11s
Presolved: 9516 rows, 6187 columns, 31527 nonzeros
Variable types: 0 continuous, 6187 integer (6187 binary)
Found heuristic solution: objective 811.0000000

Explored 1 nodes (0 simplex iterations) in 0.38 seconds (0.31 work units)
Thread count was 20 (of 20 available processors)

Solution count 2: 811 1348 

Optimal solution found (tolerance 1.00e-04)
Best objective 8.110000000000e+02, best bound 8.110000000000e+02, gap 0.0000%

Gurobi 11.0.3 (win64, Java) logging started Sat Nov  9 17:38:28 2024

Set parameter Username
Set parameter LogFile to value "IPModelOptimizer.log"
Academic license - for non-commercial use only - expires 2025-10-31

Gurobi 11.0.3 (win64, Java) logging started Sat Nov  9 17:42:10 2024

Set parameter Username
Set parameter LogFile to value "IPModelOptimizer.log"
Academic license - for non-commercial use only - expires 2025-10-31

Gurobi 11.0.3 (win64, Java) logging started Sat Nov  9 17:44:20 2024

Set parameter Username
Set parameter LogFile to value "IPModelOptimizer.log"
Academic license - for non-commercial use only - expires 2025-10-31
Gurobi Optimizer version 11.0.3 build v11.0.3rc0 (win64 - Windows 11+.0 (26100.2))

CPU model: 13th Gen Intel(R) Core(TM) i7-13700H, instruction set [SSE2|AVX|AVX2]
Thread count: 14 physical cores, 20 logical processors, using up to 20 threads

Optimize a model with 285374 rows, 217980 columns and 1070142 nonzeros
Model fingerprint: 0xdfd52365
Variable types: 0 continuous, 217980 integer (217980 binary)
Coefficient statistics:
  Matrix range     [1e+00, 1e+00]
  Objective range  [1e+00, 1e+02]
  Bounds range     [1e+00, 1e+00]
  RHS range        [1e+00, 1e+00]
Found heuristic solution: objective 1973.0000000
Presolve removed 9491 rows and 5334 columns
Presolve time: 2.74s
Presolved: 275883 rows, 212646 columns, 930886 nonzeros
Found heuristic solution: objective 1972.0000000
Variable types: 0 continuous, 212646 integer (212646 binary)
Deterministic concurrent LP optimizer: primal simplex, dual simplex, and barrier
Showing barrier log only...

Root barrier log...

Ordering time: 0.30s

Barrier performed 0 iterations in 4.29 seconds (5.44 work units)
Barrier solve interrupted - model solved by another algorithm

Concurrent spin time: 0.45s (can be avoided by choosing Method=3)

Solved with dual simplex

Root relaxation: objective 8.090000e+02, 346 iterations, 1.32 seconds (0.76 work units)

    Nodes    |    Current Node    |     Objective Bounds      |     Work
 Expl Unexpl |  Obj  Depth IntInf | Incumbent    BestBd   Gap | It/Node Time

*    0     0               0     809.0000000  809.00000  0.00%     -    4s

Explored 1 nodes (346 simplex iterations) in 4.44 seconds (5.51 work units)
Thread count was 20 (of 20 available processors)

Solution count 3: 809 1972 1973 

Optimal solution found (tolerance 1.00e-04)
Best objective 8.090000000000e+02, best bound 8.090000000000e+02, gap 0.0000%

Gurobi 11.0.3 (win64, Java) logging started Sat Nov  9 17:45:38 2024

Set parameter Username
Set parameter LogFile to value "IPModelOptimizer.log"
Academic license - for non-commercial use only - expires 2025-10-31

Gurobi 11.0.3 (win64, Java) logging started Sat Nov  9 17:45:58 2024

Set parameter Username
Set parameter LogFile to value "IPModelOptimizer.log"
Academic license - for non-commercial use only - expires 2025-10-31
Gurobi Optimizer version 11.0.3 build v11.0.3rc0 (win64 - Windows 11+.0 (26100.2))

CPU model: 13th Gen Intel(R) Core(TM) i7-13700H, instruction set [SSE2|AVX|AVX2]
Thread count: 14 physical cores, 20 logical processors, using up to 20 threads

Optimize a model with 285374 rows, 217980 columns and 1070142 nonzeros
Model fingerprint: 0xdfd52365
Variable types: 0 continuous, 217980 integer (217980 binary)
Coefficient statistics:
  Matrix range     [1e+00, 1e+00]
  Objective range  [1e+00, 1e+02]
  Bounds range     [1e+00, 1e+00]
  RHS range        [1e+00, 1e+00]
Found heuristic solution: objective 1973.0000000
Presolve removed 9491 rows and 5334 columns
Presolve time: 2.80s
Presolved: 275883 rows, 212646 columns, 930886 nonzeros
Found heuristic solution: objective 1972.0000000
Variable types: 0 continuous, 212646 integer (212646 binary)
Deterministic concurrent LP optimizer: primal simplex, dual simplex, and barrier
Showing barrier log only...

Root barrier log...

Ordering time: 0.30s

Barrier performed 0 iterations in 4.36 seconds (5.44 work units)
Barrier solve interrupted - model solved by another algorithm

Concurrent spin time: 0.43s (can be avoided by choosing Method=3)

Solved with dual simplex

Root relaxation: objective 8.090000e+02, 346 iterations, 1.32 seconds (0.76 work units)

    Nodes    |    Current Node    |     Objective Bounds      |     Work
 Expl Unexpl |  Obj  Depth IntInf | Incumbent    BestBd   Gap | It/Node Time

*    0     0               0     809.0000000  809.00000  0.00%     -    4s

Explored 1 nodes (346 simplex iterations) in 4.51 seconds (5.51 work units)
Thread count was 20 (of 20 available processors)

Solution count 3: 809 1972 1973 

Optimal solution found (tolerance 1.00e-04)
Best objective 8.090000000000e+02, best bound 8.090000000000e+02, gap 0.0000%

Gurobi 11.0.3 (win64, Java) logging started Sat Nov  9 17:47:04 2024

Set parameter Username
Set parameter LogFile to value "IPModelOptimizer.log"
Academic license - for non-commercial use only - expires 2025-10-31
Gurobi Optimizer version 11.0.3 build v11.0.3rc0 (win64 - Windows 11+.0 (26100.2))

CPU model: 13th Gen Intel(R) Core(TM) i7-13700H, instruction set [SSE2|AVX|AVX2]
Thread count: 14 physical cores, 20 logical processors, using up to 20 threads

Optimize a model with 285374 rows, 217980 columns and 1070142 nonzeros
Model fingerprint: 0xdfd52365
Variable types: 0 continuous, 217980 integer (217980 binary)
Coefficient statistics:
  Matrix range     [1e+00, 1e+00]
  Objective range  [1e+00, 1e+02]
  Bounds range     [1e+00, 1e+00]
  RHS range        [1e+00, 1e+00]
Found heuristic solution: objective 1973.0000000
Presolve removed 9491 rows and 5334 columns
Presolve time: 2.53s
Presolved: 275883 rows, 212646 columns, 930886 nonzeros
Found heuristic solution: objective 1972.0000000
Variable types: 0 continuous, 212646 integer (212646 binary)
Deterministic concurrent LP optimizer: primal simplex, dual simplex, and barrier
Showing barrier log only...

Root barrier log...

Ordering time: 0.28s

Barrier performed 0 iterations in 4.00 seconds (5.44 work units)
Barrier solve interrupted - model solved by another algorithm

Concurrent spin time: 0.41s (can be avoided by choosing Method=3)

Solved with dual simplex

Root relaxation: objective 8.090000e+02, 346 iterations, 1.26 seconds (0.76 work units)

    Nodes    |    Current Node    |     Objective Bounds      |     Work
 Expl Unexpl |  Obj  Depth IntInf | Incumbent    BestBd   Gap | It/Node Time

*    0     0               0     809.0000000  809.00000  0.00%     -    4s

Explored 1 nodes (346 simplex iterations) in 4.14 seconds (5.51 work units)
Thread count was 20 (of 20 available processors)

Solution count 3: 809 1972 1973 

Optimal solution found (tolerance 1.00e-04)
Best objective 8.090000000000e+02, best bound 8.090000000000e+02, gap 0.0000%
